10J3M/DAT/10J3MULL-3.dat
10 3
14.9183 14.9183
39.5342 39.5342
39.933 39.933
44.3462 44.3462
27.8834 27.8834
36.8274 36.8274
10.7804 10.7804
3.8277 3.8277
18.8014 18.8014
0.605 0.605
79.1523