10J3M/SOL/10J3MULL-3.sol
solution status: optimal solution found
objective value:                              79.1523
x#1#2                                0.75986540021316 	(obj:0)
x#1#3                                0.24013459978684 	(obj:0)
x#2#1                                               1 	(obj:0)
x#3#2                                               1 	(obj:0)
x#4#1                               0.212674366687562 	(obj:0)
x#4#3                               0.787325633312438 	(obj:0)
x#5#2                                               1 	(obj:0)
x#6#3                               0.999997284630465 	(obj:0)
x#7#1                                               1 	(obj:0)
x#8#3                                               1 	(obj:0)
x#9#1                                               1 	(obj:0)
x#10#1                                              1 	(obj:0)
z                                             79.1523 	(obj:1)
